************************************************************************
file with basedata            : mb14_.bas
initial value random generator: 13782
************************************************************************
projects                      :  1
jobs (incl. supersource/sink ):  12
horizon                       :  81
RESOURCES
  - renewable                 :  2   R
  - nonrenewable              :  2   N
  - doubly constrained        :  0   D
************************************************************************
PROJECT INFORMATION:
pronr.  #jobs rel.date duedate tardcost  MPM-Time
    1     10      0        9        7        9
************************************************************************
PRECEDENCE RELATIONS:
jobnr.    #modes  #successors   successors
   0        1          3           1   2   3
   1        3          2           7   8
   2        3          1           4
   3        3          3           5   7  10
   4        3          2           9  10
   5        3          2           6   8
   6        3          1           9
   7        3          1           9
   8        3          1          11
   9        3          1          11
  10        3          1          11
  11        1          0        
************************************************************************
REQUESTS/DURATIONS:
jobnr. mode duration  R 1  R 2  R 3  R 4  E(W 1)  E(W 2)  E(W 3)
------------------------------------------------------------------------
  0      1     0       0    0    0    0     0       0       0
  1      1     1       7    7    9    7    14       9       7
  2      1     4       6    9    6    6    60      24      24
  3      1     1       7    9    5    9    16       5       9
  4      1     2       6    7    6    6    26      12      12
  5      1     2       9    9   10    7    36      20      14
  6      1     4       5    7    9    5    48      36      20
  7      1     2       6    9    9    4    30      18       8
  8      1     1       8    9    4    4    17       4       4
  9      1     1       9    8    6    3    17       6       3
 10      1     3       9    4    7    7    39      21      21
 11      1     0       0    0    0    0     0       0       0
************************************************************************
RESOURCEAVAILABILITIES:
  R 1  R 2  R 3
   20   71   59
************************************************************************
RESOURCE LIMITS:
jobnr.  l(R 1)  u(R 1)  l(R 2)  u(R 2)  l(R 3)  u(R 3)
------------------------------------------------------------------------
  0        0       0       0       0       0       0
  1        8      14       5       9       4       7
  2        8      15       3       6       3       6
  3        9      16       3       5       5       9
  4        7      13       3       6       3       6
  5       10      18       5      10       4       7
  6        7      12       5       9       3       5
  7        8      15       5       9       2       4
  8        9      17       2       4       2       4
  9        9      17       3       6       2       3
 10        7      13       4       7       4       7
 11        0       0       0       0       0       0
************************************************************************
SCENARIOS:
------------------------------------------------------------------------
RESOURCE k = 1
s = 1: (0, 18, 71, 11, 23, 32, 37, 16, 18, 14, 52, 0)
s = 2: (0, 11, 47, 20, 40, 57, 37, 25, 16, 16, 30, 0)
s = 3: (0, 11, 64, 14, 20, 36, 49, 23, 27, 24, 41, 0)
s = 4: (0, 15, 54, 13, 22, 25, 68, 25, 12, 17, 36, 0)
s = 5: (0, 10, 41, 14, 16, 26, 45, 42, 17, 17, 60, 0)
s = 6: (0, 25, 72, 24, 20, 43, 27, 19, 15, 16, 43, 0)
s = 7: (0, 13, 60, 16, 41, 47, 58, 28, 14, 21, 37, 0)
s = 8: (0, 10, 46, 18, 29, 46, 52, 35, 15, 14, 23, 0)
s = 9: (0, 13, 67, 17, 26, 31, 76, 24, 13, 24, 42, 0)
s = 10: (0, 17, 60, 13, 34, 29, 56, 33, 12, 15, 49, 0)
s = 11: (0, 11, 70, 14, 26, 30, 56, 34, 14, 22, 44, 0)
s = 12: (0, 16, 49, 16, 17, 33, 28, 23, 25, 15, 41, 0)
s = 13: (0, 13, 43, 14, 26, 52, 28, 29, 15, 16, 42, 0)
s = 14: (0, 11, 69, 24, 37, 25, 40, 26, 19, 22, 34, 0)
s = 15: (0, 15, 45, 24, 35, 38, 48, 22, 14, 25, 23, 0)
s = 16: (0, 18, 96, 11, 38, 52, 41, 51, 16, 17, 45, 0)
s = 17: (0, 18, 62, 19, 25, 34, 66, 32, 21, 16, 38, 0)
s = 18: (0, 17, 90, 10, 23, 30, 43, 49, 11, 10, 33, 0)
s = 19: (0, 14, 62, 20, 34, 35, 42, 23, 29, 15, 40, 0)
s = 20: (0, 14, 62, 10, 16, 32, 57, 34, 13, 18, 32, 0)
s = 21: (0, 15, 94, 13, 22, 45, 49, 30, 19, 19, 35, 0)
s = 22: (0, 13, 63, 15, 25, 30, 46, 26, 13, 22, 62, 0)
s = 23: (0, 13, 55, 27, 24, 36, 31, 24, 25, 13, 22, 0)
s = 24: (0, 17, 72, 16, 14, 22, 54, 18, 16, 23, 23, 0)
s = 25: (0, 13, 39, 21, 37, 46, 44, 30, 17, 24, 46, 0)
s = 26: (0, 11, 68, 17, 43, 38, 28, 44, 9, 17, 36, 0)
s = 27: (0, 19, 75, 14, 20, 21, 41, 46, 13, 14, 34, 0)
s = 28: (0, 19, 99, 23, 27, 47, 70, 35, 13, 19, 22, 0)
s = 29: (0, 16, 49, 11, 36, 21, 38, 32, 17, 22, 45, 0)
s = 30: (0, 13, 60, 14, 19, 26, 59, 34, 12, 22, 67, 0)
s = 31: (0, 10, 36, 20, 20, 41, 43, 18, 13, 13, 38, 0)
s = 32: (0, 14, 51, 19, 23, 41, 49, 26, 25, 17, 56, 0)
s = 33: (0, 16, 58, 19, 20, 44, 65, 27, 10, 14, 53, 0)
s = 34: (0, 20, 60, 13, 18, 27, 52, 24, 12, 20, 49, 0)
s = 35: (0, 15, 38, 15, 20, 56, 38, 30, 12, 16, 62, 0)
s = 36: (0, 11, 55, 13, 15, 48, 65, 32, 22, 18, 60, 0)
s = 37: (0, 27, 54, 18, 24, 32, 35, 44, 11, 18, 37, 0)
s = 38: (0, 21, 47, 16, 23, 30, 35, 43, 16, 18, 29, 0)
s = 39: (0, 13, 88, 11, 30, 47, 31, 33, 21, 25, 53, 0)
s = 40: (0, 16, 49, 13, 32, 29, 61, 34, 16, 15, 57, 0)
s = 41: (0, 16, 78, 13, 34, 60, 35, 31, 17, 13, 50, 0)
s = 42: (0, 20, 67, 12, 18, 47, 32, 18, 21, 12, 41, 0)
s = 43: (0, 9, 55, 10, 26, 43, 46, 37, 11, 19, 52, 0)
s = 44: (0, 15, 59, 16, 16, 40, 33, 44, 21, 28, 36, 0)
s = 45: (0, 17, 53, 10, 25, 48, 51, 22, 21, 20, 27, 0)
s = 46: (0, 16, 49, 17, 22, 30, 41, 47, 20, 16, 30, 0)
s = 47: (0, 12, 36, 17, 25, 37, 38, 39, 29, 13, 38, 0)
s = 48: (0, 17, 54, 14, 22, 19, 51, 34, 16, 21, 31, 0)
s = 49: (0, 17, 67, 18, 24, 49, 41, 31, 21, 16, 40, 0)
s = 50: (0, 23, 65, 27, 41, 45, 81, 37, 20, 13, 33, 0)
s = 51: (0, 23, 49, 9, 26, 25, 33, 22, 18, 24, 35, 0)
s = 52: (0, 14, 68, 14, 23, 37, 56, 30, 21, 11, 51, 0)
s = 53: (0, 12, 52, 11, 37, 36, 33, 34, 21, 14, 31, 0)
s = 54: (0, 12, 40, 19, 22, 30, 36, 27, 14, 18, 24, 0)
s = 55: (0, 15, 63, 14, 24, 20, 47, 33, 17, 20, 47, 0)
s = 56: (0, 15, 63, 17, 35, 31, 64, 35, 21, 17, 31, 0)
s = 57: (0, 15, 52, 17, 20, 33, 52, 21, 22, 17, 54, 0)
s = 58: (0, 13, 37, 18, 29, 55, 38, 37, 17, 12, 31, 0)
s = 59: (0, 14, 85, 13, 31, 33, 89, 34, 11, 22, 37, 0)
s = 60: (0, 15, 94, 13, 32, 31, 40, 32, 24, 28, 30, 0)
s = 61: (0, 14, 33, 14, 23, 27, 41, 37, 23, 15, 41, 0)
s = 62: (0, 26, 79, 27, 22, 56, 36, 41, 13, 20, 33, 0)
s = 63: (0, 12, 68, 26, 28, 45, 36, 26, 23, 28, 24, 0)
s = 64: (0, 12, 43, 14, 35, 50, 33, 25, 22, 14, 40, 0)
s = 65: (0, 10, 55, 15, 19, 34, 50, 37, 19, 16, 32, 0)
s = 66: (0, 11, 47, 10, 20, 38, 43, 24, 20, 23, 37, 0)
s = 67: (0, 10, 49, 21, 31, 28, 39, 20, 11, 11, 43, 0)
s = 68: (0, 13, 79, 15, 39, 23, 40, 41, 22, 15, 36, 0)
s = 69: (0, 21, 48, 24, 14, 23, 35, 40, 18, 24, 51, 0)
s = 70: (0, 9, 36, 11, 22, 28, 43, 31, 13, 14, 24, 0)
s = 71: (0, 19, 54, 14, 24, 38, 39, 32, 19, 20, 52, 0)
s = 72: (0, 14, 54, 23, 30, 39, 35, 27, 22, 21, 37, 0)
s = 73: (0, 9, 77, 18, 21, 52, 43, 25, 21, 23, 47, 0)
s = 74: (0, 17, 55, 14, 46, 55, 64, 55, 16, 21, 42, 0)
s = 75: (0, 17, 75, 20, 17, 23, 36, 20, 17, 11, 43, 0)
s = 76: (0, 9, 66, 13, 23, 47, 34, 31, 13, 19, 81, 0)
s = 77: (0, 15, 54, 13, 26, 26, 59, 26, 25, 11, 41, 0)
s = 78: (0, 16, 50, 17, 26, 35, 86, 26, 10, 13, 31, 0)
s = 79: (0, 14, 64, 16, 40, 46, 39, 25, 21, 29, 39, 0)
s = 80: (0, 11, 65, 25, 34, 44, 53, 21, 22, 14, 33, 0)
s = 81: (0, 12, 71, 18, 31, 39, 71, 28, 26, 13, 27, 0)
s = 82: (0, 11, 41, 14, 23, 31, 44, 26, 14, 13, 31, 0)
s = 83: (0, 19, 52, 12, 19, 42, 28, 27, 27, 13, 41, 0)
s = 84: (0, 15, 51, 14, 32, 21, 57, 25, 20, 20, 24, 0)
s = 85: (0, 18, 48, 19, 31, 36, 30, 37, 18, 13, 50, 0)
s = 86: (0, 12, 37, 15, 20, 42, 62, 19, 19, 14, 40, 0)
s = 87: (0, 24, 38, 16, 43, 29, 32, 24, 21, 13, 47, 0)
s = 88: (0, 12, 50, 15, 29, 23, 36, 43, 17, 23, 31, 0)
s = 89: (0, 14, 46, 13, 31, 26, 45, 52, 15, 17, 35, 0)
s = 90: (0, 17, 81, 10, 23, 33, 63, 35, 11, 25, 25, 0)
s = 91: (0, 11, 78, 16, 19, 33, 46, 39, 15, 16, 42, 0)
s = 92: (0, 17, 60, 15, 29, 60, 70, 36, 12, 15, 39, 0)
s = 93: (0, 18, 66, 10, 33, 22, 37, 20, 14, 19, 28, 0)
s = 94: (0, 13, 74, 22, 21, 37, 60, 28, 16, 20, 27, 0)
s = 95: (0, 18, 53, 22, 22, 37, 37, 39, 13, 18, 39, 0)
s = 96: (0, 16, 49, 16, 40, 45, 39, 47, 16, 27, 51, 0)
s = 97: (0, 14, 70, 20, 17, 32, 47, 41, 13, 20, 60, 0)
s = 98: (0, 12, 35, 17, 28, 20, 35, 32, 25, 18, 49, 0)
s = 99: (0, 13, 91, 20, 22, 55, 60, 31, 13, 18, 31, 0)
s = 100: (0, 11, 67, 9, 17, 29, 31, 40, 24, 14, 39, 0)
s = 101: (0, 12, 48, 16, 16, 41, 49, 26, 19, 20, 31, 0)
s = 102: (0, 17, 61, 13, 33, 34, 59, 32, 16, 12, 38, 0)
s = 103: (0, 12, 55, 13, 28, 37, 40, 26, 16, 18, 46, 0)
s = 104: (0, 16, 55, 16, 18, 39, 30, 26, 15, 19, 27, 0)
s = 105: (0, 20, 53, 17, 18, 37, 83, 37, 13, 17, 67, 0)
s = 106: (0, 14, 46, 18, 33, 46, 37, 20, 22, 21, 26, 0)
s = 107: (0, 11, 50, 20, 30, 50, 46, 37, 15, 20, 60, 0)
s = 108: (0, 11, 71, 25, 19, 39, 39, 29, 18, 24, 40, 0)
s = 109: (0, 11, 39, 19, 17, 20, 60, 32, 14, 19, 37, 0)
s = 110: (0, 18, 57, 14, 35, 65, 62, 25, 16, 22, 40, 0)
s = 111: (0, 15, 72, 13, 19, 34, 52, 27, 13, 25, 39, 0)
s = 112: (0, 10, 77, 10, 42, 23, 52, 33, 24, 30, 38, 0)
s = 113: (0, 16, 43, 19, 31, 58, 48, 37, 16, 21, 27, 0)
s = 114: (0, 23, 84, 25, 29, 41, 45, 37, 19, 11, 23, 0)
s = 115: (0, 20, 66, 18, 32, 41, 57, 27, 17, 13, 27, 0)
s = 116: (0, 12, 68, 23, 26, 22, 36, 22, 24, 13, 40, 0)
s = 117: (0, 9, 56, 20, 17, 31, 38, 21, 21, 16, 31, 0)
s = 118: (0, 20, 64, 15, 26, 39, 67, 27, 13, 12, 26, 0)
s = 119: (0, 25, 65, 22, 41, 42, 53, 46, 21, 14, 30, 0)
s = 120: (0, 20, 70, 18, 16, 27, 39, 25, 16, 10, 30, 0)
s = 121: (0, 17, 74, 14, 27, 27, 37, 26, 20, 31, 38, 0)
s = 122: (0, 15, 79, 22, 28, 39, 57, 40, 15, 17, 36, 0)
s = 123: (0, 10, 54, 27, 20, 45, 43, 40, 11, 12, 25, 0)
s = 124: (0, 18, 42, 17, 31, 27, 34, 37, 25, 15, 50, 0)
s = 125: (0, 10, 47, 19, 17, 34, 30, 16, 20, 20, 26, 0)
s = 126: (0, 15, 68, 18, 26, 51, 50, 23, 19, 13, 42, 0)
s = 127: (0, 13, 100, 16, 19, 27, 54, 31, 17, 14, 35, 0)
s = 128: (0, 16, 54, 19, 22, 43, 42, 27, 10, 19, 48, 0)
s = 129: (0, 17, 60, 14, 20, 33, 60, 44, 13, 13, 28, 0)
s = 130: (0, 12, 40, 14, 31, 41, 37, 48, 18, 21, 31, 0)
s = 131: (0, 15, 59, 15, 15, 35, 53, 39, 16, 14, 28, 0)
s = 132: (0, 13, 43, 22, 16, 40, 35, 17, 17, 18, 64, 0)
s = 133: (0, 11, 71, 16, 26, 30, 32, 32, 12, 21, 30, 0)
s = 134: (0, 21, 69, 10, 25, 51, 49, 32, 10, 12, 48, 0)
s = 135: (0, 22, 49, 16, 20, 53, 30, 38, 13, 13, 53, 0)
s = 136: (0, 10, 62, 11, 16, 33, 43, 33, 12, 17, 26, 0)
s = 137: (0, 11, 84, 12, 29, 39, 49, 19, 23, 20, 41, 0)
s = 138: (0, 8, 69, 14, 25, 59, 92, 38, 16, 25, 30, 0)
s = 139: (0, 9, 63, 18, 44, 28, 42, 34, 22, 18, 23, 0)
s = 140: (0, 9, 61, 17, 34, 21, 44, 25, 23, 17, 43, 0)
s = 141: (0, 8, 67, 16, 39, 35, 66, 43, 11, 12, 36, 0)
s = 142: (0, 12, 70, 19, 32, 33, 53, 25, 12, 16, 35, 0)
s = 143: (0, 19, 63, 14, 31, 39, 66, 43, 17, 15, 41, 0)
s = 144: (0, 11, 42, 22, 15, 42, 48, 23, 24, 14, 28, 0)
s = 145: (0, 9, 44, 13, 30, 46, 76, 28, 17, 13, 40, 0)
s = 146: (0, 20, 38, 17, 33, 41, 38, 42, 24, 16, 34, 0)
s = 147: (0, 14, 98, 16, 40, 23, 48, 36, 24, 11, 31, 0)
s = 148: (0, 16, 43, 10, 20, 38, 48, 35, 15, 15, 51, 0)
s = 149: (0, 17, 71, 10, 20, 29, 27, 43, 20, 13, 34, 0)
s = 150: (0, 11, 82, 23, 27, 38, 46, 43, 19, 11, 37, 0)
s = 151: (0, 15, 71, 15, 39, 29, 45, 27, 22, 15, 42, 0)
s = 152: (0, 24, 38, 17, 27, 27, 46, 18, 30, 10, 52, 0)
s = 153: (0, 12, 53, 12, 19, 23, 39, 40, 17, 14, 43, 0)
s = 154: (0, 13, 37, 11, 25, 34, 61, 25, 13, 21, 33, 0)
s = 155: (0, 19, 49, 12, 32, 38, 56, 32, 20, 28, 39, 0)
s = 156: (0, 19, 61, 16, 43, 48, 46, 18, 12, 12, 30, 0)
s = 157: (0, 8, 47, 10, 33, 37, 58, 37, 22, 16, 55, 0)
s = 158: (0, 18, 49, 19, 25, 66, 38, 21, 13, 17, 32, 0)
s = 159: (0, 13, 70, 13, 23, 46, 50, 20, 16, 20, 38, 0)
s = 160: (0, 12, 97, 15, 24, 40, 48, 31, 21, 20, 63, 0)
s = 161: (0, 17, 42, 13, 23, 24, 85, 42, 23, 19, 54, 0)
s = 162: (0, 17, 70, 18, 25, 36, 29, 25, 11, 15, 30, 0)
s = 163: (0, 9, 37, 14, 32, 55, 48, 39, 19, 23, 34, 0)
s = 164: (0, 8, 42, 13, 22, 23, 44, 34, 21, 26, 37, 0)
s = 165: (0, 12, 117, 19, 34, 62, 38, 38, 17, 9, 31, 0)
s = 166: (0, 13, 59, 19, 28, 35, 46, 30, 22, 16, 30, 0)
s = 167: (0, 18, 43, 11, 16, 29, 40, 49, 12, 10, 44, 0)
s = 168: (0, 19, 77, 19, 23, 40, 27, 38, 11, 19, 34, 0)
s = 169: (0, 15, 61, 11, 19, 39, 59, 33, 11, 22, 45, 0)
s = 170: (0, 10, 46, 12, 27, 30, 65, 24, 10, 15, 29, 0)
s = 171: (0, 10, 83, 20, 19, 31, 39, 30, 14, 18, 40, 0)
s = 172: (0, 12, 67, 15, 16, 35, 35, 52, 18, 19, 47, 0)
s = 173: (0, 17, 97, 15, 32, 38, 44, 32, 18, 20, 64, 0)
s = 174: (0, 13, 39, 23, 25, 63, 43, 32, 26, 18, 26, 0)
s = 175: (0, 16, 40, 24, 20, 34, 48, 32, 25, 13, 56, 0)
s = 176: (0, 13, 47, 11, 35, 20, 36, 31, 14, 15, 24, 0)
s = 177: (0, 14, 37, 18, 21, 49, 47, 23, 21, 11, 29, 0)
s = 178: (0, 15, 48, 21, 19, 35, 36, 23, 13, 15, 52, 0)
s = 179: (0, 9, 59, 13, 35, 58, 69, 40, 19, 17, 38, 0)
s = 180: (0, 12, 53, 12, 30, 41, 52, 23, 21, 24, 27, 0)
s = 181: (0, 13, 58, 17, 33, 20, 53, 29, 12, 11, 31, 0)
s = 182: (0, 13, 67, 17, 19, 34, 42, 27, 21, 10, 32, 0)
s = 183: (0, 15, 47, 10, 28, 26, 35, 35, 22, 10, 43, 0)
s = 184: (0, 25, 57, 23, 26, 36, 45, 22, 19, 17, 25, 0)
s = 185: (0, 18, 48, 16, 16, 30, 51, 23, 13, 20, 32, 0)
s = 186: (0, 11, 42, 13, 23, 36, 64, 36, 21, 18, 43, 0)
s = 187: (0, 11, 86, 12, 30, 39, 48, 31, 17, 30, 38, 0)
s = 188: (0, 13, 70, 14, 36, 33, 54, 50, 19, 14, 23, 0)
s = 189: (0, 16, 41, 12, 25, 39, 61, 18, 21, 29, 42, 0)
s = 190: (0, 19, 44, 13, 28, 26, 66, 32, 12, 17, 74, 0)
s = 191: (0, 15, 47, 27, 16, 21, 60, 24, 13, 22, 41, 0)
s = 192: (0, 15, 92, 19, 27, 34, 64, 23, 22, 18, 32, 0)
s = 193: (0, 21, 66, 12, 16, 43, 45, 34, 12, 17, 49, 0)
s = 194: (0, 9, 56, 16, 23, 38, 49, 40, 12, 14, 44, 0)
s = 195: (0, 18, 36, 22, 17, 44, 66, 27, 24, 10, 45, 0)
s = 196: (0, 19, 37, 15, 21, 27, 46, 32, 13, 11, 25, 0)
s = 197: (0, 12, 88, 13, 21, 37, 38, 35, 21, 11, 53, 0)
s = 198: (0, 18, 84, 16, 26, 27, 38, 34, 9, 12, 30, 0)
s = 199: (0, 16, 43, 17, 39, 45, 52, 17, 28, 12, 36, 0)
s = 200: (0, 18, 40, 15, 32, 45, 60, 43, 16, 13, 37, 0)
------------------------------------------------------------------------
RESOURCE k = 2
s = 1: (0, 11, 29, 4, 11, 18, 28, 10, 5, 5, 28, 0)
s = 2: (0, 8, 19, 6, 19, 32, 28, 15, 4, 6, 16, 0)
s = 3: (0, 7, 26, 5, 9, 20, 37, 14, 7, 9, 22, 0)
s = 4: (0, 10, 22, 5, 11, 14, 51, 15, 3, 6, 20, 0)
s = 5: (0, 7, 17, 5, 7, 15, 34, 25, 4, 6, 33, 0)
s = 6: (0, 16, 29, 8, 10, 24, 20, 12, 4, 6, 23, 0)
s = 7: (0, 9, 24, 5, 19, 27, 44, 17, 4, 8, 20, 0)
s = 8: (0, 7, 19, 6, 14, 26, 39, 21, 4, 5, 13, 0)
s = 9: (0, 8, 27, 6, 12, 17, 57, 15, 3, 9, 23, 0)
s = 10: (0, 11, 24, 4, 16, 17, 42, 20, 3, 6, 26, 0)
s = 11: (0, 8, 28, 5, 12, 17, 42, 21, 4, 8, 24, 0)
s = 12: (0, 10, 20, 5, 8, 19, 21, 14, 6, 6, 22, 0)
s = 13: (0, 8, 18, 5, 12, 29, 21, 18, 4, 6, 23, 0)
s = 14: (0, 7, 28, 8, 17, 14, 30, 16, 5, 8, 19, 0)
s = 15: (0, 10, 18, 8, 16, 21, 36, 14, 4, 9, 13, 0)
s = 16: (0, 12, 39, 4, 18, 29, 31, 31, 4, 6, 25, 0)
s = 17: (0, 12, 25, 6, 12, 19, 50, 20, 5, 6, 21, 0)
s = 18: (0, 11, 36, 4, 11, 17, 33, 29, 3, 4, 18, 0)
s = 19: (0, 9, 25, 6, 16, 20, 32, 14, 7, 6, 22, 0)
s = 20: (0, 9, 25, 3, 8, 18, 43, 21, 3, 7, 17, 0)
s = 21: (0, 10, 38, 5, 10, 25, 37, 18, 5, 7, 19, 0)
s = 22: (0, 9, 25, 5, 12, 17, 35, 16, 4, 8, 34, 0)
s = 23: (0, 9, 22, 9, 11, 20, 23, 15, 6, 5, 12, 0)
s = 24: (0, 11, 29, 5, 7, 13, 40, 11, 4, 8, 13, 0)
s = 25: (0, 9, 16, 7, 18, 26, 33, 18, 4, 9, 25, 0)
s = 26: (0, 7, 28, 6, 20, 21, 21, 27, 3, 6, 20, 0)
s = 27: (0, 12, 30, 5, 9, 12, 31, 28, 3, 5, 19, 0)
s = 28: (0, 13, 40, 7, 13, 26, 52, 21, 3, 7, 12, 0)
s = 29: (0, 11, 20, 4, 17, 12, 29, 20, 4, 8, 25, 0)
s = 30: (0, 9, 24, 5, 9, 14, 45, 21, 3, 8, 37, 0)
s = 31: (0, 6, 15, 7, 9, 23, 32, 11, 3, 5, 21, 0)
s = 32: (0, 9, 21, 6, 11, 23, 37, 16, 6, 6, 30, 0)
s = 33: (0, 11, 24, 6, 9, 25, 49, 16, 3, 5, 29, 0)
s = 34: (0, 13, 24, 4, 8, 15, 39, 15, 3, 7, 27, 0)
s = 35: (0, 10, 15, 5, 10, 32, 29, 18, 3, 6, 34, 0)
s = 36: (0, 7, 22, 5, 7, 27, 49, 19, 6, 7, 32, 0)
s = 37: (0, 18, 22, 6, 11, 18, 26, 26, 3, 7, 20, 0)
s = 38: (0, 14, 19, 5, 11, 17, 26, 26, 4, 7, 16, 0)
s = 39: (0, 8, 35, 4, 14, 26, 23, 20, 5, 9, 29, 0)
s = 40: (0, 11, 20, 5, 15, 16, 46, 21, 4, 6, 31, 0)
s = 41: (0, 10, 32, 5, 16, 33, 27, 19, 4, 5, 27, 0)
s = 42: (0, 13, 27, 4, 8, 26, 24, 11, 5, 5, 22, 0)
s = 43: (0, 6, 22, 4, 12, 24, 35, 22, 3, 7, 28, 0)
s = 44: (0, 10, 24, 5, 7, 22, 25, 26, 5, 10, 20, 0)
s = 45: (0, 11, 21, 3, 12, 27, 38, 14, 5, 8, 15, 0)
s = 46: (0, 10, 20, 6, 10, 17, 31, 28, 5, 6, 16, 0)
s = 47: (0, 8, 15, 6, 12, 21, 29, 24, 7, 5, 20, 0)
s = 48: (0, 11, 22, 5, 10, 11, 38, 21, 4, 8, 17, 0)
s = 49: (0, 11, 27, 6, 11, 28, 31, 19, 5, 6, 22, 0)
s = 50: (0, 15, 26, 9, 19, 25, 61, 22, 5, 5, 18, 0)
s = 51: (0, 15, 20, 3, 12, 14, 25, 13, 5, 9, 19, 0)
s = 52: (0, 9, 28, 5, 11, 21, 42, 18, 5, 4, 28, 0)
s = 53: (0, 8, 21, 4, 17, 20, 25, 21, 5, 5, 17, 0)
s = 54: (0, 8, 16, 6, 10, 17, 27, 16, 4, 7, 13, 0)
s = 55: (0, 10, 26, 5, 11, 11, 36, 20, 4, 7, 25, 0)
s = 56: (0, 10, 26, 6, 16, 17, 48, 21, 5, 6, 17, 0)
s = 57: (0, 10, 21, 6, 9, 19, 39, 13, 5, 6, 29, 0)
s = 58: (0, 9, 15, 6, 14, 31, 29, 22, 4, 5, 17, 0)
s = 59: (0, 9, 34, 4, 15, 19, 67, 21, 3, 8, 20, 0)
s = 60: (0, 10, 38, 4, 15, 17, 30, 19, 6, 10, 16, 0)
s = 61: (0, 9, 13, 5, 11, 15, 31, 23, 6, 6, 22, 0)
s = 62: (0, 17, 32, 9, 10, 31, 27, 25, 3, 7, 18, 0)
s = 63: (0, 8, 27, 9, 13, 25, 27, 16, 6, 10, 13, 0)
s = 64: (0, 8, 17, 5, 16, 28, 25, 15, 6, 5, 22, 0)
s = 65: (0, 7, 22, 5, 9, 19, 38, 23, 5, 6, 17, 0)
s = 66: (0, 8, 19, 3, 10, 21, 32, 15, 5, 9, 20, 0)
s = 67: (0, 6, 20, 7, 15, 16, 29, 12, 3, 4, 23, 0)
s = 68: (0, 8, 32, 5, 18, 13, 30, 25, 5, 6, 20, 0)
s = 69: (0, 14, 20, 8, 7, 13, 26, 24, 5, 9, 28, 0)
s = 70: (0, 6, 15, 4, 10, 16, 33, 19, 3, 5, 13, 0)
s = 71: (0, 12, 22, 5, 12, 21, 29, 19, 5, 7, 28, 0)
s = 72: (0, 9, 22, 8, 14, 22, 26, 16, 5, 8, 20, 0)
s = 73: (0, 6, 31, 6, 10, 29, 33, 15, 5, 8, 26, 0)
s = 74: (0, 11, 22, 5, 21, 31, 48, 33, 4, 8, 23, 0)
s = 75: (0, 11, 30, 6, 8, 13, 27, 12, 4, 4, 23, 0)
s = 76: (0, 6, 27, 4, 11, 26, 26, 19, 4, 7, 44, 0)
s = 77: (0, 10, 22, 5, 12, 15, 44, 16, 6, 4, 23, 0)
s = 78: (0, 10, 20, 6, 12, 20, 64, 16, 3, 5, 17, 0)
s = 79: (0, 9, 26, 5, 19, 26, 30, 15, 5, 11, 21, 0)
s = 80: (0, 7, 26, 8, 16, 25, 40, 13, 6, 5, 18, 0)
s = 81: (0, 8, 29, 6, 14, 22, 53, 17, 6, 5, 15, 0)
s = 82: (0, 7, 17, 5, 11, 18, 33, 16, 4, 5, 17, 0)
s = 83: (0, 13, 21, 4, 9, 24, 21, 16, 7, 5, 23, 0)
s = 84: (0, 10, 21, 5, 15, 12, 43, 15, 5, 7, 13, 0)
s = 85: (0, 12, 20, 6, 15, 20, 23, 22, 5, 5, 27, 0)
s = 86: (0, 8, 15, 5, 9, 23, 47, 12, 5, 5, 22, 0)
s = 87: (0, 16, 16, 5, 20, 16, 24, 14, 5, 5, 26, 0)
s = 88: (0, 8, 20, 5, 14, 13, 27, 26, 4, 8, 17, 0)
s = 89: (0, 9, 19, 4, 15, 14, 34, 31, 4, 6, 19, 0)
s = 90: (0, 11, 33, 3, 11, 19, 47, 21, 3, 9, 13, 0)
s = 91: (0, 7, 32, 5, 9, 19, 35, 23, 4, 6, 23, 0)
s = 92: (0, 11, 24, 5, 13, 34, 53, 22, 3, 6, 21, 0)
s = 93: (0, 12, 27, 4, 16, 13, 28, 12, 4, 7, 15, 0)
s = 94: (0, 8, 30, 7, 10, 21, 45, 17, 4, 7, 15, 0)
s = 95: (0, 11, 21, 7, 10, 21, 28, 24, 3, 7, 21, 0)
s = 96: (0, 11, 20, 5, 19, 25, 29, 28, 4, 10, 28, 0)
s = 97: (0, 9, 28, 7, 8, 18, 36, 25, 4, 7, 33, 0)
s = 98: (0, 8, 14, 6, 13, 11, 26, 20, 6, 7, 27, 0)
s = 99: (0, 8, 37, 7, 10, 31, 45, 19, 3, 7, 17, 0)
s = 100: (0, 7, 27, 3, 8, 16, 24, 24, 6, 5, 21, 0)
s = 101: (0, 8, 19, 5, 8, 23, 37, 16, 5, 7, 17, 0)
s = 102: (0, 11, 25, 4, 15, 19, 44, 19, 4, 5, 20, 0)
s = 103: (0, 8, 22, 4, 13, 21, 30, 16, 4, 7, 25, 0)
s = 104: (0, 10, 22, 5, 8, 22, 23, 16, 4, 7, 15, 0)
s = 105: (0, 13, 21, 6, 9, 21, 62, 23, 4, 6, 36, 0)
s = 106: (0, 9, 19, 6, 15, 26, 28, 12, 6, 8, 14, 0)
s = 107: (0, 7, 20, 7, 14, 28, 34, 22, 4, 7, 32, 0)
s = 108: (0, 8, 29, 8, 9, 22, 30, 18, 5, 9, 22, 0)
s = 109: (0, 7, 16, 6, 8, 11, 45, 20, 4, 7, 20, 0)
s = 110: (0, 11, 23, 5, 16, 36, 46, 15, 4, 8, 22, 0)
s = 111: (0, 10, 29, 4, 9, 19, 39, 16, 3, 9, 21, 0)
s = 112: (0, 6, 31, 4, 20, 13, 39, 20, 6, 11, 21, 0)
s = 113: (0, 10, 18, 6, 15, 33, 36, 23, 4, 8, 15, 0)
s = 114: (0, 15, 34, 8, 14, 23, 34, 22, 5, 4, 13, 0)
s = 115: (0, 13, 27, 6, 15, 23, 43, 17, 4, 5, 15, 0)
s = 116: (0, 8, 28, 8, 12, 12, 27, 14, 6, 5, 22, 0)
s = 117: (0, 6, 23, 7, 8, 17, 29, 13, 5, 6, 17, 0)
s = 118: (0, 13, 26, 5, 12, 22, 50, 16, 3, 4, 14, 0)
s = 119: (0, 16, 26, 7, 19, 23, 40, 28, 5, 5, 17, 0)
s = 120: (0, 13, 28, 6, 8, 15, 29, 15, 4, 4, 17, 0)
s = 121: (0, 11, 30, 5, 13, 15, 28, 16, 5, 11, 21, 0)
s = 122: (0, 10, 32, 7, 13, 22, 43, 24, 4, 6, 20, 0)
s = 123: (0, 6, 22, 9, 9, 25, 32, 24, 3, 5, 14, 0)
s = 124: (0, 12, 17, 6, 15, 15, 26, 23, 6, 6, 27, 0)
s = 125: (0, 7, 19, 6, 8, 19, 23, 10, 5, 7, 14, 0)
s = 126: (0, 10, 27, 6, 12, 28, 38, 14, 5, 5, 23, 0)
s = 127: (0, 9, 40, 5, 9, 15, 40, 19, 4, 5, 19, 0)
s = 128: (0, 11, 22, 6, 10, 24, 31, 16, 3, 7, 26, 0)
s = 129: (0, 11, 24, 5, 9, 18, 45, 27, 4, 5, 15, 0)
s = 130: (0, 8, 16, 5, 14, 23, 28, 29, 5, 8, 17, 0)
s = 131: (0, 10, 24, 5, 7, 20, 40, 24, 4, 5, 15, 0)
s = 132: (0, 9, 17, 7, 8, 22, 27, 10, 4, 7, 35, 0)
s = 133: (0, 7, 29, 5, 12, 17, 24, 19, 3, 8, 16, 0)
s = 134: (0, 14, 28, 4, 12, 28, 37, 19, 3, 4, 26, 0)
s = 135: (0, 14, 20, 5, 10, 30, 23, 23, 3, 5, 29, 0)
s = 136: (0, 7, 25, 4, 8, 18, 32, 20, 3, 6, 14, 0)
s = 137: (0, 7, 34, 4, 14, 22, 37, 12, 6, 7, 22, 0)
s = 138: (0, 6, 28, 5, 12, 33, 69, 23, 4, 9, 16, 0)
s = 139: (0, 6, 26, 6, 21, 16, 31, 20, 5, 7, 12, 0)
s = 140: (0, 6, 25, 6, 16, 12, 33, 15, 6, 6, 24, 0)
s = 141: (0, 5, 27, 5, 18, 20, 50, 26, 3, 4, 20, 0)
s = 142: (0, 8, 28, 6, 15, 18, 40, 15, 3, 6, 19, 0)
s = 143: (0, 13, 25, 5, 14, 22, 50, 26, 4, 6, 22, 0)
s = 144: (0, 8, 17, 7, 7, 23, 36, 14, 6, 5, 16, 0)
s = 145: (0, 6, 18, 4, 14, 26, 57, 17, 4, 5, 22, 0)
s = 146: (0, 13, 16, 6, 15, 23, 28, 26, 6, 6, 18, 0)
s = 147: (0, 9, 39, 5, 19, 13, 36, 22, 6, 4, 17, 0)
s = 148: (0, 10, 18, 3, 10, 21, 36, 21, 4, 6, 27, 0)
s = 149: (0, 11, 29, 3, 10, 16, 20, 26, 5, 5, 19, 0)
s = 150: (0, 7, 33, 7, 13, 21, 35, 26, 5, 4, 20, 0)
s = 151: (0, 10, 29, 5, 18, 17, 34, 16, 6, 6, 23, 0)
s = 152: (0, 16, 16, 6, 13, 15, 35, 11, 7, 4, 28, 0)
s = 153: (0, 8, 21, 4, 9, 13, 30, 24, 4, 5, 24, 0)
s = 154: (0, 9, 15, 4, 12, 19, 46, 15, 3, 8, 18, 0)
s = 155: (0, 12, 20, 4, 15, 21, 42, 19, 5, 10, 21, 0)
s = 156: (0, 12, 25, 5, 20, 27, 35, 11, 3, 5, 16, 0)
s = 157: (0, 5, 19, 3, 16, 21, 44, 22, 5, 6, 30, 0)
s = 158: (0, 12, 20, 6, 12, 37, 29, 13, 4, 6, 18, 0)
s = 159: (0, 8, 28, 5, 11, 26, 38, 12, 4, 7, 20, 0)
s = 160: (0, 8, 39, 5, 11, 23, 36, 19, 5, 7, 34, 0)
s = 161: (0, 11, 17, 4, 11, 13, 64, 25, 6, 7, 29, 0)
s = 162: (0, 11, 28, 6, 12, 20, 22, 15, 3, 6, 17, 0)
s = 163: (0, 6, 15, 5, 15, 31, 36, 24, 5, 8, 18, 0)
s = 164: (0, 5, 17, 4, 10, 13, 33, 20, 5, 10, 20, 0)
s = 165: (0, 8, 47, 6, 16, 35, 28, 23, 4, 4, 17, 0)
s = 166: (0, 8, 24, 6, 13, 20, 35, 18, 5, 6, 17, 0)
s = 167: (0, 12, 18, 4, 8, 16, 30, 30, 3, 4, 24, 0)
s = 168: (0, 13, 31, 6, 11, 23, 20, 23, 3, 7, 19, 0)
s = 169: (0, 10, 25, 4, 9, 22, 45, 20, 3, 8, 25, 0)
s = 170: (0, 7, 19, 4, 13, 17, 49, 15, 3, 6, 16, 0)
s = 171: (0, 6, 34, 7, 9, 18, 30, 18, 4, 7, 22, 0)
s = 172: (0, 8, 27, 5, 8, 20, 26, 31, 5, 7, 26, 0)
s = 173: (0, 11, 39, 5, 15, 21, 33, 19, 5, 8, 35, 0)
s = 174: (0, 9, 16, 7, 12, 35, 32, 20, 7, 7, 14, 0)
s = 175: (0, 11, 16, 8, 9, 19, 36, 19, 6, 5, 30, 0)
s = 176: (0, 9, 19, 4, 17, 12, 27, 19, 4, 6, 13, 0)
s = 177: (0, 9, 15, 6, 10, 28, 35, 14, 5, 4, 16, 0)
s = 178: (0, 10, 19, 7, 9, 19, 27, 14, 3, 6, 28, 0)
s = 179: (0, 6, 24, 4, 16, 33, 52, 24, 5, 6, 21, 0)
s = 180: (0, 8, 21, 4, 14, 23, 39, 14, 5, 9, 15, 0)
s = 181: (0, 9, 24, 6, 16, 12, 40, 17, 3, 4, 17, 0)
s = 182: (0, 9, 27, 6, 9, 19, 32, 17, 5, 4, 17, 0)
s = 183: (0, 10, 19, 3, 13, 14, 26, 21, 6, 4, 24, 0)
s = 184: (0, 16, 23, 7, 12, 20, 34, 14, 5, 6, 13, 0)
s = 185: (0, 12, 19, 5, 8, 17, 38, 14, 3, 7, 18, 0)
s = 186: (0, 8, 17, 4, 11, 20, 48, 22, 5, 7, 23, 0)
s = 187: (0, 7, 35, 4, 14, 22, 36, 19, 4, 11, 21, 0)
s = 188: (0, 9, 28, 5, 17, 19, 41, 30, 5, 5, 12, 0)
s = 189: (0, 10, 17, 4, 12, 22, 46, 11, 5, 11, 23, 0)
s = 190: (0, 12, 18, 5, 13, 15, 49, 19, 3, 6, 40, 0)
s = 191: (0, 10, 19, 9, 8, 12, 45, 15, 3, 8, 22, 0)
s = 192: (0, 10, 37, 6, 13, 19, 48, 14, 6, 7, 17, 0)
s = 193: (0, 14, 27, 4, 8, 24, 34, 21, 3, 6, 27, 0)
s = 194: (0, 6, 23, 5, 11, 21, 37, 24, 3, 5, 24, 0)
s = 195: (0, 12, 15, 7, 8, 25, 49, 16, 6, 4, 24, 0)
s = 196: (0, 12, 15, 5, 10, 15, 34, 20, 3, 4, 14, 0)
s = 197: (0, 8, 36, 4, 10, 21, 29, 21, 5, 4, 29, 0)
s = 198: (0, 12, 34, 5, 12, 15, 29, 21, 3, 5, 16, 0)
s = 199: (0, 11, 17, 6, 18, 25, 39, 11, 7, 5, 20, 0)
s = 200: (0, 12, 16, 5, 15, 25, 45, 26, 4, 5, 20, 0)
------------------------------------------------------------------------
RESOURCE k = 3
s = 1: (0, 9, 29, 6, 11, 13, 16, 5, 5, 3, 28, 0)
s = 2: (0, 6, 19, 11, 19, 22, 16, 7, 4, 3, 16, 0)
s = 3: (0, 6, 26, 8, 9, 14, 21, 6, 7, 5, 22, 0)
s = 4: (0, 8, 22, 8, 11, 10, 29, 7, 3, 3, 20, 0)
s = 5: (0, 5, 17, 8, 7, 10, 19, 12, 4, 3, 33, 0)
s = 6: (0, 13, 29, 13, 10, 17, 11, 6, 4, 3, 23, 0)
s = 7: (0, 7, 24, 9, 19, 19, 24, 8, 4, 4, 20, 0)
s = 8: (0, 5, 19, 10, 14, 18, 22, 10, 4, 3, 13, 0)
s = 9: (0, 7, 27, 10, 12, 12, 32, 7, 3, 5, 23, 0)
s = 10: (0, 9, 24, 7, 16, 12, 23, 9, 3, 3, 26, 0)
s = 11: (0, 6, 28, 8, 12, 12, 24, 9, 4, 4, 24, 0)
s = 12: (0, 8, 20, 9, 8, 13, 12, 7, 6, 3, 22, 0)
s = 13: (0, 7, 18, 8, 12, 21, 12, 8, 4, 3, 23, 0)
s = 14: (0, 6, 28, 14, 17, 10, 17, 7, 5, 4, 19, 0)
s = 15: (0, 8, 18, 13, 16, 15, 20, 6, 4, 5, 13, 0)
s = 16: (0, 9, 39, 6, 18, 21, 17, 14, 4, 3, 25, 0)
s = 17: (0, 9, 25, 11, 12, 14, 28, 9, 5, 3, 21, 0)
s = 18: (0, 9, 36, 6, 11, 12, 18, 13, 3, 2, 18, 0)
s = 19: (0, 7, 25, 11, 16, 14, 18, 7, 7, 3, 22, 0)
s = 20: (0, 7, 25, 6, 8, 13, 24, 10, 3, 4, 17, 0)
s = 21: (0, 8, 38, 8, 10, 18, 21, 8, 5, 4, 19, 0)
s = 22: (0, 7, 25, 8, 12, 12, 19, 7, 4, 4, 34, 0)
s = 23: (0, 7, 22, 16, 11, 14, 13, 7, 6, 3, 12, 0)
s = 24: (0, 9, 29, 9, 7, 9, 23, 5, 4, 4, 13, 0)
s = 25: (0, 7, 16, 12, 18, 18, 18, 8, 4, 5, 25, 0)
s = 26: (0, 6, 28, 10, 20, 15, 12, 12, 3, 3, 20, 0)
s = 27: (0, 10, 30, 8, 9, 9, 17, 13, 3, 3, 19, 0)
s = 28: (0, 10, 40, 13, 13, 18, 29, 10, 3, 4, 12, 0)
s = 29: (0, 8, 20, 6, 17, 9, 16, 9, 4, 4, 25, 0)
s = 30: (0, 7, 24, 8, 9, 10, 25, 10, 3, 4, 37, 0)
s = 31: (0, 5, 15, 12, 9, 16, 18, 5, 3, 3, 21, 0)
s = 32: (0, 7, 21, 11, 11, 16, 21, 7, 6, 3, 30, 0)
s = 33: (0, 8, 24, 11, 9, 17, 27, 7, 3, 3, 29, 0)
s = 34: (0, 10, 24, 7, 8, 11, 22, 7, 3, 4, 27, 0)
s = 35: (0, 8, 15, 9, 10, 22, 16, 8, 3, 3, 34, 0)
s = 36: (0, 6, 22, 8, 7, 19, 28, 9, 6, 4, 32, 0)
s = 37: (0, 14, 22, 10, 11, 13, 15, 12, 3, 4, 20, 0)
s = 38: (0, 11, 19, 9, 11, 12, 15, 12, 4, 4, 16, 0)
s = 39: (0, 7, 35, 6, 14, 18, 13, 9, 5, 5, 29, 0)
s = 40: (0, 8, 20, 8, 15, 11, 26, 9, 4, 3, 31, 0)
s = 41: (0, 8, 32, 8, 16, 24, 15, 9, 4, 3, 27, 0)
s = 42: (0, 10, 27, 7, 8, 18, 14, 5, 5, 3, 22, 0)
s = 43: (0, 5, 22, 6, 12, 17, 20, 10, 3, 4, 28, 0)
s = 44: (0, 8, 24, 9, 7, 16, 14, 12, 5, 5, 20, 0)
s = 45: (0, 9, 21, 6, 12, 19, 22, 6, 5, 4, 15, 0)
s = 46: (0, 8, 20, 10, 10, 12, 18, 13, 5, 3, 16, 0)
s = 47: (0, 6, 15, 10, 12, 15, 16, 11, 7, 3, 20, 0)
s = 48: (0, 9, 22, 8, 10, 8, 21, 9, 4, 4, 17, 0)
s = 49: (0, 9, 27, 10, 11, 20, 18, 9, 5, 3, 22, 0)
s = 50: (0, 12, 26, 15, 19, 18, 34, 10, 5, 3, 18, 0)
s = 51: (0, 12, 20, 6, 12, 10, 14, 6, 5, 5, 19, 0)
s = 52: (0, 7, 28, 8, 11, 15, 24, 8, 5, 2, 28, 0)
s = 53: (0, 6, 21, 7, 17, 14, 14, 10, 5, 3, 17, 0)
s = 54: (0, 6, 16, 11, 10, 12, 15, 8, 4, 4, 13, 0)
s = 55: (0, 8, 26, 8, 11, 8, 20, 9, 4, 4, 25, 0)
s = 56: (0, 8, 26, 10, 16, 12, 27, 10, 5, 3, 17, 0)
s = 57: (0, 8, 21, 10, 9, 13, 22, 6, 5, 3, 29, 0)
s = 58: (0, 7, 15, 10, 14, 22, 16, 10, 4, 3, 17, 0)
s = 59: (0, 7, 34, 8, 15, 13, 38, 9, 3, 4, 20, 0)
s = 60: (0, 8, 38, 8, 15, 12, 17, 9, 6, 5, 16, 0)
s = 61: (0, 7, 13, 8, 11, 11, 17, 10, 6, 3, 22, 0)
s = 62: (0, 13, 32, 15, 10, 22, 15, 11, 3, 4, 18, 0)
s = 63: (0, 6, 27, 15, 13, 18, 15, 7, 6, 5, 13, 0)
s = 64: (0, 6, 17, 8, 16, 20, 14, 7, 6, 3, 22, 0)
s = 65: (0, 5, 22, 9, 9, 14, 21, 10, 5, 3, 17, 0)
s = 66: (0, 6, 19, 6, 10, 15, 18, 7, 5, 5, 20, 0)
s = 67: (0, 5, 20, 12, 15, 11, 16, 6, 3, 2, 23, 0)
s = 68: (0, 7, 32, 9, 18, 9, 17, 11, 5, 3, 20, 0)
s = 69: (0, 11, 20, 14, 7, 9, 15, 11, 5, 5, 28, 0)
s = 70: (0, 5, 15, 6, 10, 11, 18, 9, 3, 3, 13, 0)
s = 71: (0, 10, 22, 8, 12, 15, 16, 9, 5, 4, 28, 0)
s = 72: (0, 7, 22, 13, 14, 16, 15, 8, 5, 4, 20, 0)
s = 73: (0, 5, 31, 11, 10, 21, 18, 7, 5, 4, 26, 0)
s = 74: (0, 9, 22, 8, 21, 22, 27, 15, 4, 4, 23, 0)
s = 75: (0, 9, 30, 11, 8, 9, 15, 6, 4, 2, 23, 0)
s = 76: (0, 5, 27, 7, 11, 19, 14, 9, 4, 4, 44, 0)
s = 77: (0, 8, 22, 8, 12, 10, 25, 7, 6, 2, 23, 0)
s = 78: (0, 8, 20, 10, 12, 14, 36, 7, 3, 3, 17, 0)
s = 79: (0, 7, 26, 9, 19, 18, 17, 7, 5, 6, 21, 0)
s = 80: (0, 6, 26, 14, 16, 18, 22, 6, 6, 3, 18, 0)
s = 81: (0, 6, 29, 11, 14, 16, 30, 8, 6, 3, 15, 0)
s = 82: (0, 6, 17, 8, 11, 12, 19, 7, 4, 3, 17, 0)
s = 83: (0, 10, 21, 7, 9, 17, 12, 7, 7, 3, 23, 0)
s = 84: (0, 8, 21, 8, 15, 8, 24, 7, 5, 4, 13, 0)
s = 85: (0, 9, 20, 11, 15, 14, 13, 10, 5, 3, 27, 0)
s = 86: (0, 6, 15, 9, 9, 16, 26, 5, 5, 3, 22, 0)
s = 87: (0, 12, 16, 9, 20, 11, 14, 7, 5, 3, 26, 0)
s = 88: (0, 6, 20, 9, 14, 9, 15, 12, 4, 4, 17, 0)
s = 89: (0, 7, 19, 7, 15, 10, 19, 14, 4, 3, 19, 0)
s = 90: (0, 9, 33, 6, 11, 13, 27, 10, 3, 5, 13, 0)
s = 91: (0, 6, 32, 9, 9, 13, 20, 11, 4, 3, 23, 0)
s = 92: (0, 9, 24, 9, 13, 24, 29, 10, 3, 3, 21, 0)
s = 93: (0, 9, 27, 6, 16, 9, 16, 6, 4, 4, 15, 0)
s = 94: (0, 7, 30, 13, 10, 15, 25, 8, 4, 4, 15, 0)
s = 95: (0, 9, 21, 12, 10, 15, 16, 11, 3, 4, 21, 0)
s = 96: (0, 8, 20, 9, 19, 18, 16, 13, 4, 5, 28, 0)
s = 97: (0, 7, 28, 11, 8, 13, 20, 11, 4, 4, 33, 0)
s = 98: (0, 6, 14, 10, 13, 8, 15, 9, 6, 4, 27, 0)
s = 99: (0, 7, 37, 11, 10, 22, 25, 9, 3, 4, 17, 0)
s = 100: (0, 6, 27, 5, 8, 12, 13, 11, 6, 3, 21, 0)
s = 101: (0, 6, 19, 9, 8, 16, 21, 7, 5, 4, 17, 0)
s = 102: (0, 9, 25, 8, 15, 13, 25, 9, 4, 3, 20, 0)
s = 103: (0, 6, 22, 7, 13, 15, 17, 7, 4, 4, 25, 0)
s = 104: (0, 8, 22, 9, 8, 16, 13, 7, 4, 4, 15, 0)
s = 105: (0, 10, 21, 10, 9, 15, 35, 10, 4, 3, 36, 0)
s = 106: (0, 7, 19, 10, 15, 18, 16, 6, 6, 4, 14, 0)
s = 107: (0, 6, 20, 12, 14, 20, 19, 10, 4, 4, 32, 0)
s = 108: (0, 6, 29, 14, 9, 16, 17, 8, 5, 5, 22, 0)
s = 109: (0, 6, 16, 11, 8, 8, 25, 9, 4, 4, 20, 0)
s = 110: (0, 9, 23, 8, 16, 26, 26, 7, 4, 4, 22, 0)
s = 111: (0, 8, 29, 8, 9, 13, 22, 8, 3, 5, 21, 0)
s = 112: (0, 5, 31, 6, 20, 9, 22, 9, 6, 6, 21, 0)
s = 113: (0, 8, 18, 11, 15, 23, 20, 10, 4, 4, 15, 0)
s = 114: (0, 12, 34, 14, 14, 16, 19, 10, 5, 2, 13, 0)
s = 115: (0, 10, 27, 11, 15, 16, 24, 8, 4, 3, 15, 0)
s = 116: (0, 6, 28, 13, 12, 9, 15, 6, 6, 3, 22, 0)
s = 117: (0, 5, 23, 11, 8, 12, 16, 6, 5, 3, 17, 0)
s = 118: (0, 10, 26, 9, 12, 15, 28, 8, 3, 2, 14, 0)
s = 119: (0, 13, 26, 13, 19, 16, 22, 13, 5, 3, 17, 0)
s = 120: (0, 10, 28, 10, 8, 11, 17, 7, 4, 2, 17, 0)
s = 121: (0, 9, 30, 8, 13, 11, 16, 7, 5, 6, 21, 0)
s = 122: (0, 8, 32, 13, 13, 15, 24, 11, 4, 3, 20, 0)
s = 123: (0, 5, 22, 15, 9, 18, 18, 11, 3, 3, 14, 0)
s = 124: (0, 9, 17, 10, 15, 11, 14, 10, 6, 3, 27, 0)
s = 125: (0, 5, 19, 11, 8, 14, 13, 5, 5, 4, 14, 0)
s = 126: (0, 8, 27, 10, 12, 20, 21, 6, 5, 3, 23, 0)
s = 127: (0, 7, 40, 9, 9, 11, 23, 9, 4, 3, 19, 0)
s = 128: (0, 8, 22, 11, 10, 17, 18, 8, 3, 4, 26, 0)
s = 129: (0, 9, 24, 8, 9, 13, 25, 12, 4, 3, 15, 0)
s = 130: (0, 6, 16, 8, 14, 16, 16, 13, 5, 4, 17, 0)
s = 131: (0, 8, 24, 9, 7, 14, 22, 11, 4, 3, 15, 0)
s = 132: (0, 7, 17, 13, 8, 16, 15, 5, 4, 4, 35, 0)
s = 133: (0, 6, 29, 9, 12, 12, 14, 9, 3, 4, 16, 0)
s = 134: (0, 11, 28, 6, 12, 20, 21, 9, 3, 2, 26, 0)
s = 135: (0, 11, 20, 9, 10, 21, 13, 10, 3, 3, 29, 0)
s = 136: (0, 5, 25, 6, 8, 13, 18, 9, 3, 3, 14, 0)
s = 137: (0, 6, 34, 7, 14, 15, 21, 5, 6, 4, 22, 0)
s = 138: (0, 4, 28, 8, 12, 23, 39, 10, 4, 5, 16, 0)
s = 139: (0, 5, 26, 11, 21, 11, 18, 9, 5, 4, 12, 0)
s = 140: (0, 5, 25, 10, 16, 9, 19, 7, 6, 3, 24, 0)
s = 141: (0, 4, 27, 9, 18, 14, 28, 12, 3, 2, 20, 0)
s = 142: (0, 6, 28, 11, 15, 13, 22, 7, 3, 3, 19, 0)
s = 143: (0, 10, 25, 8, 14, 15, 28, 12, 4, 3, 22, 0)
s = 144: (0, 6, 17, 13, 7, 17, 20, 6, 6, 3, 16, 0)
s = 145: (0, 5, 18, 8, 14, 18, 32, 8, 4, 3, 22, 0)
s = 146: (0, 10, 16, 10, 15, 16, 16, 12, 6, 3, 18, 0)
s = 147: (0, 7, 39, 9, 19, 9, 20, 10, 6, 2, 17, 0)
s = 148: (0, 8, 18, 6, 10, 15, 20, 10, 4, 3, 27, 0)
s = 149: (0, 9, 29, 6, 10, 11, 11, 12, 5, 3, 19, 0)
s = 150: (0, 6, 33, 13, 13, 15, 19, 12, 5, 2, 20, 0)
s = 151: (0, 8, 29, 9, 18, 12, 19, 8, 6, 3, 23, 0)
s = 152: (0, 12, 16, 10, 13, 11, 20, 5, 7, 2, 28, 0)
s = 153: (0, 6, 21, 7, 9, 9, 17, 11, 4, 3, 24, 0)
s = 154: (0, 7, 15, 6, 12, 14, 26, 7, 3, 4, 18, 0)
s = 155: (0, 10, 20, 7, 15, 15, 24, 9, 5, 5, 21, 0)
s = 156: (0, 10, 25, 9, 20, 19, 20, 5, 3, 3, 16, 0)
s = 157: (0, 4, 19, 6, 16, 15, 24, 10, 5, 3, 30, 0)
s = 158: (0, 9, 20, 11, 12, 26, 16, 6, 4, 3, 18, 0)
s = 159: (0, 7, 28, 8, 11, 18, 21, 6, 4, 4, 20, 0)
s = 160: (0, 6, 39, 8, 11, 16, 20, 9, 5, 4, 34, 0)
s = 161: (0, 9, 17, 8, 11, 9, 36, 11, 6, 4, 29, 0)
s = 162: (0, 9, 28, 11, 12, 14, 13, 7, 3, 3, 17, 0)
s = 163: (0, 5, 15, 8, 15, 22, 20, 11, 5, 4, 18, 0)
s = 164: (0, 4, 17, 7, 10, 9, 19, 9, 5, 5, 20, 0)
s = 165: (0, 6, 47, 11, 16, 24, 16, 11, 4, 2, 17, 0)
s = 166: (0, 7, 24, 11, 13, 14, 20, 8, 5, 3, 17, 0)
s = 167: (0, 9, 18, 6, 8, 12, 17, 13, 3, 2, 24, 0)
s = 168: (0, 10, 31, 11, 11, 16, 11, 11, 3, 4, 19, 0)
s = 169: (0, 8, 25, 6, 9, 15, 25, 9, 3, 4, 25, 0)
s = 170: (0, 5, 19, 7, 13, 12, 27, 7, 3, 3, 16, 0)
s = 171: (0, 5, 34, 12, 9, 12, 17, 8, 4, 4, 22, 0)
s = 172: (0, 6, 27, 9, 8, 14, 15, 14, 5, 4, 26, 0)
s = 173: (0, 9, 39, 8, 15, 15, 18, 9, 5, 4, 35, 0)
s = 174: (0, 7, 16, 13, 12, 25, 18, 9, 7, 4, 14, 0)
s = 175: (0, 8, 16, 14, 9, 13, 20, 9, 6, 3, 30, 0)
s = 176: (0, 7, 19, 6, 17, 8, 15, 9, 4, 3, 13, 0)
s = 177: (0, 7, 15, 10, 10, 19, 20, 7, 5, 2, 16, 0)
s = 178: (0, 8, 19, 12, 9, 14, 15, 6, 3, 3, 28, 0)
s = 179: (0, 5, 24, 8, 16, 23, 29, 11, 5, 3, 21, 0)
s = 180: (0, 6, 21, 7, 14, 16, 22, 7, 5, 5, 15, 0)
s = 181: (0, 7, 24, 10, 16, 8, 22, 8, 3, 2, 17, 0)
s = 182: (0, 7, 27, 10, 9, 13, 18, 8, 5, 2, 17, 0)
s = 183: (0, 8, 19, 6, 13, 10, 15, 10, 6, 2, 24, 0)
s = 184: (0, 13, 23, 13, 12, 14, 19, 6, 5, 3, 13, 0)
s = 185: (0, 9, 19, 9, 8, 12, 21, 6, 3, 4, 18, 0)
s = 186: (0, 6, 17, 7, 11, 14, 27, 10, 5, 4, 23, 0)
s = 187: (0, 6, 35, 7, 14, 15, 20, 9, 4, 6, 21, 0)
s = 188: (0, 7, 28, 8, 17, 13, 23, 14, 5, 3, 12, 0)
s = 189: (0, 8, 17, 7, 12, 16, 26, 5, 5, 6, 23, 0)
s = 190: (0, 10, 18, 8, 13, 10, 28, 9, 3, 3, 40, 0)
s = 191: (0, 8, 19, 15, 8, 8, 25, 7, 3, 4, 22, 0)
s = 192: (0, 8, 37, 11, 13, 13, 27, 7, 6, 4, 17, 0)
s = 193: (0, 11, 27, 7, 8, 17, 19, 9, 3, 3, 27, 0)
s = 194: (0, 5, 23, 9, 11, 15, 21, 11, 3, 3, 24, 0)
s = 195: (0, 9, 15, 13, 8, 17, 28, 8, 6, 2, 24, 0)
s = 196: (0, 10, 15, 9, 10, 11, 19, 9, 3, 2, 14, 0)
s = 197: (0, 6, 36, 8, 10, 15, 16, 10, 5, 2, 29, 0)
s = 198: (0, 9, 34, 9, 12, 11, 16, 10, 3, 3, 16, 0)
s = 199: (0, 8, 17, 10, 18, 18, 22, 5, 7, 3, 20, 0)
s = 200: (0, 9, 16, 9, 15, 18, 25, 12, 4, 3, 20, 0)
************************************************************************
ES/LS-VALUES:
jobnr.   ES(i)    LS(i)
------------------------------------------------------------------------
  0        0        0
  1        0       73
  2        0       62
  3        0       65
  4        7       70
  5        1       67
  6        4       71
  7        2       75
  8        4       79
  9       11       79
 10       10       74
 11       16       81
************************************************************************
BIG-M-VALUES:
M1 = 47, M2 = 211
************************************************************************
